
Gurobi 10.0.1 (mac64[arm]) logging started Thu Mar 28 19:19:37 2024

Set parameter LogFile to value "/Users/deniserings/Documents/zib/s-bahn-data/scripts/DeniseMA/processed/BPKW_BKRW_BSNF_O/original/LP_based/BPKW_BKRW_BSNF_O_lp.log"
Gurobi Optimizer version 10.0.1 build v10.0.1rc0 (mac64[arm])

CPU model: Apple M2
Thread count: 8 physical cores, 8 logical processors, using up to 8 threads

Optimize a model with 4411 rows, 2168 columns and 15763 nonzeros
Model fingerprint: 0xfea96fa6
Variable types: 1196 continuous, 972 integer (972 binary)
Coefficient statistics:
  Matrix range     [1e+00, 2e+02]
  Objective range  [1e+00, 4e+02]
  Bounds range     [1e+00, 2e+02]
  RHS range        [1e+00, 5e+02]
Presolve removed 2147 rows and 858 columns
Presolve time: 0.04s
Presolved: 2264 rows, 1310 columns, 9165 nonzeros
Variable types: 578 continuous, 732 integer (732 binary)

Root relaxation: objective 8.446500e+03, 777 iterations, 0.00 seconds (0.01 work units)

    Nodes    |    Current Node    |     Objective Bounds      |     Work
 Expl Unexpl |  Obj  Depth IntInf | Incumbent    BestBd   Gap | It/Node Time

     0     0 8446.50000    0   31          - 8446.50000      -     -    0s
     0     0 8447.72881    0   96          - 8447.72881      -     -    0s
     0     0 8447.72881    0   98          - 8447.72881      -     -    0s
     0     0 8450.06460    0   98          - 8450.06460      -     -    0s
     0     0 8457.35164    0  101          - 8457.35164      -     -    0s
     0     0 8457.35164    0  101          - 8457.35164      -     -    0s
     0     0 8460.07967    0  126          - 8460.07967      -     -    0s
     0     0 8460.07967    0  114          - 8460.07967      -     -    0s
     0     0 8460.07967    0   99          - 8460.07967      -     -    0s
     0     0 8460.07967    0  101          - 8460.07967      -     -    0s
H    0     0                    8963.6704066 8460.07967  5.62%     -    0s
     0     0 8460.07967    0   39 8963.67041 8460.07967  5.62%     -    0s
H    0     0                    8894.9300155 8460.07967  4.89%     -    0s
     0     0 8460.07967    0   52 8894.93002 8460.07967  4.89%     -    0s
     0     0 8473.17557    0   34 8894.93002 8473.17557  4.74%     -    0s
     0     0 8473.17557    0   59 8894.93002 8473.17557  4.74%     -    0s
     0     0 8473.17557    0   68 8894.93002 8473.17557  4.74%     -    0s
     0     0 8473.17557    0   68 8894.93002 8473.17557  4.74%     -    0s
     0     0 8473.17557    0   78 8894.93002 8473.17557  4.74%     -    0s
     0     0 8473.17557    0   78 8894.93002 8473.17557  4.74%     -    0s
     0     0 8473.17557    0   76 8894.93002 8473.17557  4.74%     -    0s
     0     0 8473.17557    0   65 8894.93002 8473.17557  4.74%     -    0s
     0     0 8473.17557    0   77 8894.93002 8473.17557  4.74%     -    0s
     0     0 8473.17557    0   62 8894.93002 8473.17557  4.74%     -    0s
     0     0 8473.17557    0   62 8894.93002 8473.17557  4.74%     -    0s
     0     2 8473.17557    0   62 8894.93002 8473.17557  4.74%     -    0s
H  175   205                    8814.2847729 8473.17557  3.87%  18.3    0s
*  783   747              70    8787.2356502 8473.17557  3.57%  12.4    0s
H  797   543                    8649.3987082 8473.17557  2.04%  12.4    0s
* 1099   559             108    8598.1683827 8473.17557  1.45%  12.5    0s
* 1100   559             108    8594.7683827 8473.17557  1.41%  12.5    0s
* 1247   560             141    8582.6250332 8473.17557  1.28%  12.8    0s
H 1573   159                    8514.6090783 8473.17557  0.49%  13.2    0s
H 1584   133                    8509.0953022 8486.77557  0.26%  13.1    1s
H 1585   126                    8504.4992207 8486.77557  0.21%  13.1    1s
H 1591   124                    8497.6191370 8486.77557  0.13%  13.1    1s
H 1630   145                    8493.9021405 8486.77557  0.08%  16.8    1s
H 1668   160                    8488.9501433 8486.77557  0.03%  16.9    1s
* 1775   179              32    8488.9235214 8486.77557  0.03%  17.2    1s
H 2083   367                    8487.9667275 8486.77557  0.01%  17.3    1s
* 2104   367              48    8487.5426204 8486.77557  0.01%  17.3    1s
* 2105   367              48    8487.5066492 8486.77557  0.01%  17.3    1s

Cutting planes:
  Gomory: 33
  Cover: 41
  Implied bound: 15
  Projected implied bound: 1
  Clique: 20
  MIR: 12
  StrongCG: 3
  Flow cover: 39
  Zero half: 1
  Network: 2
  RLT: 2
  Relax-and-lift: 19

Explored 2306 nodes (42970 simplex iterations) in 1.76 seconds (1.89 work units)
Thread count was 8 (of 8 available processors)

Solution count 10: 8487.51 8487.54 8487.97 ... 8514.61

Optimal solution found (tolerance 1.00e-04)
Best objective 8.487506649163e+03, best bound 8.486775572519e+03, gap 0.0086%

User-callback calls 6103, time in user-callback 0.01 sec

Statistics for modelBPKW_BKRW_BSNF_O:
  Linear constraint matrix    : 4411 Constrs, 2168 Vars, 15763 NZs
  Variable types              : 1196 Continuous,
972 Integer (972 Binary)
  Matrix coefficient range    : [ 1, 200 ]
  Objective coefficient range : [ 1, 368 ]
  Variable bound range        : [ 1, 199 ]
  RHS coefficient range       : [ 1, 549 ]
